NAME : mar10_1000_2
COMMENT : Data set with 10 points
COMMENT : CIn-UFPE
COMMENT : Contributed by Marcelo Lacerda
TYPE : TSP
DIMENSION : 10
EDGE_WEIGHT_TYPE : EUC_2D
NODE_COORD_SECTION
1 273 967
2 437 349
3 425 79
4 668 365
5 781 82
6 649 910
7 400 815
8 563 735
9 964 896
10 514 128
EOF
